(set-logic HORN)
(declare-fun state (Int Int Int Int Int Int Int Int (Array Int Int) Int Int Int Int Int Int Int (Array Int Int) Bool) Bool)
(assert (forall ((|E_0| Int) (|F_0| Int) (|A_0| Int) (|G_0| Int) (|H_0| Int) (|B_0| Int) (|M| Int) (|L_0| Int) (|P| (Array Int Int)) (|J_0| Int) (|I_0| Int) (|C_0| Int) (|K_0| Int) (|D_0| Int) (|O| Int) (|N| Int) (|Q| (Array Int Int)) (|.loc.19| Bool) (|.loc.37| Bool) (|.y.36| (Array Int Int)) (|.y.34| Int) (|.y.33| Int) (|.y.32| Int) (|.y.31| Int) (|.y.30| Int) (|.y.28| (Array Int Int)) (|.y.26| Int) (|.y.25| Int) (|.y.24| Int) (|.y.22| Int) (|.y.21| Int) (|.y.20| Int) (|.y.35| Int) (|.y.29| Int) (|.y.23| Int) (|.y.27| Int)) (=> (and (and (and (and (and (and (and (and (and (and (and (and (and (= N 0) (= J_0 0)) (= L_0 0)) (= G_0 0)) (= E_0 0)) (= P Q)) (= F_0 I_0)) (= A_0 C_0)) (= H_0 K_0)) (= H_0 0)) (= B_0 D_0)) (= M 0)) (= M O)) (not .loc.19)) (state |E_0| |F_0| |A_0| |G_0| |H_0| |B_0| |M| |L_0| |P| |J_0| |I_0| |C_0| |K_0| |D_0| |O| |N| |Q| |.loc.19|))))
(assert (forall ((|E_0| Int) (|F_0| Int) (|A_0| Int) (|G_0| Int) (|H_0| Int) (|B_0| Int) (|M| Int) (|L_0| Int) (|P| (Array Int Int)) (|J_0| Int) (|I_0| Int) (|C_0| Int) (|K_0| Int) (|D_0| Int) (|O| Int) (|N| Int) (|Q| (Array Int Int)) (|.loc.19| Bool) (|.loc.37| Bool) (|.y.36| (Array Int Int)) (|.y.34| Int) (|.y.33| Int) (|.y.32| Int) (|.y.31| Int) (|.y.30| Int) (|.y.28| (Array Int Int)) (|.y.26| Int) (|.y.25| Int) (|.y.24| Int) (|.y.22| Int) (|.y.21| Int) (|.y.20| Int) (|.y.35| Int) (|.y.29| Int) (|.y.23| Int) (|.y.27| Int)) (=> (and (state |E_0| |F_0| |A_0| |G_0| |H_0| |B_0| |M| |L_0| |P| |J_0| |I_0| |C_0| |K_0| |D_0| |O| |N| |Q| |.loc.19|) (let ((.def_70 (<= H_0 G_0))) (let ((.def_71 (<= I_0 J_0))) (let ((.def_72 (and .def_70 .def_71))) (let ((.def_73 (<= F_0 E_0))) (let ((.def_74 (and .def_72 .def_73))) (let ((.def_76 (<= K_0 J_0))) (let ((.def_80 (not .def_73))) (let ((.def_81 (not .def_76))) (let ((.def_83 (not .def_71))) (let ((.def_85 (not .def_70))) (let ((.def_87 (not .loc.37))) (let ((.def_90 (= Q .y.36))) (let ((.def_93 (= O .y.34))) (let ((.def_96 (= D_0 .y.33))) (let ((.def_99 (= K_0 .y.32))) (let ((.def_102 (= C_0 .y.31))) (let ((.def_105 (= I_0 .y.30))) (let ((.def_108 (= P .y.28))) (let ((.def_111 (= M .y.26))) (let ((.def_114 (= B_0 .y.25))) (let ((.def_117 (= H_0 .y.24))) (let ((.def_120 (= A_0 .y.22))) (let ((.def_123 (= F_0 .y.21))) (let ((.def_128 (= (+ E_0 (* (- 1) .y.20)) (- 1)))) (let ((.def_130 (or .def_81 .def_83))) (let ((.def_132 (or .def_80 .def_85))) (let ((.def_138 (select Q (+ (* 4 J_0) C_0)))) (let ((.def_150 (= (+ N (+ .def_138 (+ (select Q (+ (* 4 J_0) D_0)) (* (- 1) .y.35)))) 0))) (let ((.def_155 (= (+ J_0 (* (- 1) .y.29)) (- 1)))) (let ((.def_160 (= (+ G_0 (* (- 1) .y.23)) (- 1)))) (let ((.def_165 (select P (+ (* 4 E_0) A_0)))) (let ((.def_178 (= (+ L_0 (+ .def_165 (+ (select P (+ (* 4 G_0) B_0)) (* (- 1) .y.27)))) 0))) (let ((.def_205 (= (+ N (+ .def_138 (* (- 1) .y.35))) 0))) (let ((.def_208 (and .def_71 .def_81))) (let ((.def_231 (= (+ N (+ (select Q (+ (* 4 J_0) D_0)) (* (- 1) .y.35))) 0))) (let ((.def_234 (and .def_71 .def_76))) (let ((.def_256 (= N .y.35))) (let ((.def_283 (= (+ L_0 (+ .def_165 (* (- 1) .y.27))) 0))) (let ((.def_379 (= (+ L_0 (+ (select P (+ (* 4 G_0) B_0)) (* (- 1) .y.27))) 0))) (let ((.def_406 (and .def_71 .def_73))) (let ((.def_453 (and .def_70 .def_73))) (let ((.def_475 (= L_0 .y.27))) (let ((.def_564 (= J_0 .y.29))) (let ((.def_566 (or .def_81 .def_234))) (let ((.def_567 (or .def_83 .def_566))) (let ((.def_569 (or .def_71 .def_566))) (let ((.def_571 (or .def_76 .def_234))) (let ((.def_572 (or .def_83 .def_571))) (let ((.def_574 (or .def_71 .def_571))) (let ((.def_669 (= G_0 .y.23))) (let ((.def_671 (= E_0 .y.20))) (let ((.def_673 (or .def_85 .def_453))) (let ((.def_674 (or .def_80 .def_673))) (let ((.def_676 (or .def_73 .def_673))) (let ((.def_678 (or .def_70 .def_453))) (let ((.def_679 (or .def_80 .def_678))) (let ((.def_681 (or .def_73 .def_678))) (and (not .loc.19) (or (or (or (or (or (or (or (or (or (or (or (or (or (or (or (or (or (or (or (or (or (or (or (or (and (and (and (or (not (= P Q)) (not (= (+ M (+ (* (- 1) L_0) (+ (* (- 1) O) N))) 0))) .def_74) .def_76) .loc.37) (and (and (and (and (and (and (and (and (and (and (and (and (and (and (and (and (and (and (and (and (and (and (and .def_80 .def_81) .def_83) .def_85) .def_87) .def_90) .def_93) .def_96) .def_99) .def_102) .def_105) .def_108) .def_111) .def_114) .def_117) .def_120) .def_123) .def_128) .def_130) .def_132) .def_150) .def_155) .def_160) .def_178)) (and (and .def_178 (and .def_160 (and .def_155 (and .def_132 (and .def_130 (and .def_128 (and .def_123 (and .def_120 (and .def_117 (and .def_114 (and .def_111 (and .def_108 (and .def_105 (and .def_102 (and .def_99 (and .def_96 (and .def_93 (and .def_90 (and .def_87 (and .def_85 (and .def_83 (and .def_76 .def_80)))))))))))))))))))))) .def_205)) (and (and .def_178 (and .def_160 (and .def_155 (and .def_132 (and .def_130 (and .def_128 (and .def_123 (and .def_120 (and .def_117 (and .def_114 (and .def_111 (and .def_108 (and .def_105 (and .def_102 (and .def_99 (and .def_96 (and .def_93 (and .def_90 (and .def_87 (and .def_85 (and .def_80 .def_208))))))))))))))))))))) .def_231)) (and (and .def_178 (and .def_160 (and .def_155 (and .def_132 (and .def_130 (and .def_128 (and .def_123 (and .def_120 (and .def_117 (and .def_114 (and .def_111 (and .def_108 (and .def_105 (and .def_102 (and .def_99 (and .def_96 (and .def_93 (and .def_90 (and .def_87 (and .def_85 (and .def_80 .def_234))))))))))))))))))))) .def_256)) (and (and .def_160 (and .def_155 (and .def_150 (and .def_132 (and .def_130 (and .def_128 (and .def_123 (and .def_120 (and .def_117 (and .def_114 (and .def_111 (and .def_108 (and .def_105 (and .def_102 (and .def_99 (and .def_96 (and .def_93 (and .def_90 (and .def_87 (and .def_83 (and .def_80 (and .def_70 .def_81)))))))))))))))))))))) .def_283)) (and .def_283 (and .def_205 (and .def_160 (and .def_155 (and .def_132 (and .def_130 (and .def_128 (and .def_123 (and .def_120 (and .def_117 (and .def_114 (and .def_111 (and .def_108 (and .def_105 (and .def_102 (and .def_99 (and .def_96 (and .def_93 (and .def_90 (and .def_87 (and .def_83 (and .def_80 (and .def_70 .def_76)))))))))))))))))))))))) (and .def_283 (and .def_231 (and .def_160 (and .def_155 (and .def_132 (and .def_130 (and .def_128 (and .def_123 (and .def_120 (and .def_117 (and .def_114 (and .def_111 (and .def_108 (and .def_105 (and .def_102 (and .def_99 (and .def_96 (and .def_93 (and .def_90 (and .def_87 (and .def_80 (and .def_72 .def_81))))))))))))))))))))))) (and .def_283 (and .def_256 (and .def_160 (and .def_155 (and .def_132 (and .def_130 (and .def_128 (and .def_123 (and .def_120 (and .def_117 (and .def_114 (and .def_111 (and .def_108 (and .def_105 (and .def_102 (and .def_99 (and .def_96 (and .def_93 (and .def_90 (and .def_87 (and .def_80 (and .def_72 .def_76))))))))))))))))))))))) (and (and .def_160 (and .def_155 (and .def_150 (and .def_132 (and .def_130 (and .def_128 (and .def_123 (and .def_120 (and .def_117 (and .def_114 (and .def_111 (and .def_108 (and .def_105 (and .def_102 (and .def_99 (and .def_96 (and .def_93 (and .def_90 (and .def_87 (and .def_85 (and .def_83 (and .def_73 .def_81)))))))))))))))))))))) .def_379)) (and .def_379 (and .def_205 (and .def_160 (and .def_155 (and .def_132 (and .def_130 (and .def_128 (and .def_123 (and .def_120 (and .def_117 (and .def_114 (and .def_111 (and .def_108 (and .def_105 (and .def_102 (and .def_99 (and .def_96 (and .def_93 (and .def_90 (and .def_87 (and .def_85 (and .def_83 (and .def_73 .def_76)))))))))))))))))))))))) (and .def_379 (and .def_231 (and .def_160 (and .def_155 (and .def_132 (and .def_130 (and .def_128 (and .def_123 (and .def_120 (and .def_117 (and .def_114 (and .def_111 (and .def_108 (and .def_105 (and .def_102 (and .def_99 (and .def_96 (and .def_93 (and .def_90 (and .def_87 (and .def_85 (and .def_81 .def_406))))))))))))))))))))))) (and .def_379 (and .def_256 (and .def_160 (and .def_155 (and .def_132 (and .def_130 (and .def_128 (and .def_123 (and .def_120 (and .def_117 (and .def_114 (and .def_111 (and .def_108 (and .def_105 (and .def_102 (and .def_99 (and .def_96 (and .def_93 (and .def_90 (and .def_87 (and .def_85 (and .def_76 .def_406))))))))))))))))))))))) (and (and .def_160 (and .def_155 (and .def_150 (and .def_132 (and .def_130 (and .def_128 (and .def_123 (and .def_120 (and .def_117 (and .def_114 (and .def_111 (and .def_108 (and .def_105 (and .def_102 (and .def_99 (and .def_96 (and .def_93 (and .def_90 (and .def_87 (and .def_83 (and .def_81 .def_453))))))))))))))))))))) .def_475)) (and .def_475 (and .def_205 (and .def_160 (and .def_155 (and .def_132 (and .def_130 (and .def_128 (and .def_123 (and .def_120 (and .def_117 (and .def_114 (and .def_111 (and .def_108 (and .def_105 (and .def_102 (and .def_99 (and .def_96 (and .def_93 (and .def_90 (and .def_87 (and .def_83 (and .def_76 .def_453))))))))))))))))))))))) (and .def_475 (and .def_231 (and .def_160 (and .def_155 (and .def_132 (and .def_130 (and .def_128 (and .def_123 (and .def_120 (and .def_117 (and .def_114 (and .def_111 (and .def_108 (and .def_105 (and .def_102 (and .def_99 (and .def_96 (and .def_93 (and .def_90 (and .def_87 (and .def_74 .def_81)))))))))))))))))))))) (and .def_475 (and .def_256 (and .def_160 (and .def_155 (and .def_132 (and .def_130 (and .def_128 (and .def_123 (and .def_120 (and .def_117 (and .def_114 (and .def_111 (and .def_108 (and .def_105 (and .def_102 (and .def_99 (and .def_96 (and .def_93 (and .def_90 (and .def_87 (and .def_74 .def_76)))))))))))))))))))))) (and (and (and (and (and (and .def_256 (and .def_178 (and .def_160 (and .def_132 (and .def_128 (and .def_123 (and .def_120 (and .def_117 (and .def_114 (and .def_111 (and .def_108 (and .def_105 (and .def_102 (and .def_99 (and .def_96 (and .def_93 (and .def_90 (and .def_87 (and .def_80 .def_85))))))))))))))))))) .def_564) .def_567) .def_569) .def_572) .def_574)) (and .def_574 (and .def_572 (and .def_569 (and .def_567 (and .def_564 (and .def_283 (and .def_256 (and .def_160 (and .def_132 (and .def_128 (and .def_123 (and .def_120 (and .def_117 (and .def_114 (and .def_111 (and .def_108 (and .def_105 (and .def_102 (and .def_99 (and .def_96 (and .def_93 (and .def_90 (and .def_87 (and .def_70 .def_80))))))))))))))))))))))))) (and .def_574 (and .def_572 (and .def_569 (and .def_567 (and .def_564 (and .def_379 (and .def_256 (and .def_160 (and .def_132 (and .def_128 (and .def_123 (and .def_120 (and .def_117 (and .def_114 (and .def_111 (and .def_108 (and .def_105 (and .def_102 (and .def_99 (and .def_96 (and .def_93 (and .def_90 (and .def_87 (and .def_73 .def_85))))))))))))))))))))))))) (and .def_574 (and .def_572 (and .def_569 (and .def_567 (and .def_564 (and .def_475 (and .def_256 (and .def_160 (and .def_132 (and .def_128 (and .def_123 (and .def_120 (and .def_117 (and .def_114 (and .def_111 (and .def_108 (and .def_105 (and .def_102 (and .def_99 (and .def_96 (and .def_93 (and .def_90 (and .def_87 .def_453)))))))))))))))))))))))) (and (and (and (and (and (and (and .def_475 (and .def_155 (and .def_150 (and .def_130 (and .def_123 (and .def_120 (and .def_117 (and .def_114 (and .def_111 (and .def_108 (and .def_105 (and .def_102 (and .def_99 (and .def_96 (and .def_93 (and .def_90 (and .def_87 (and .def_81 .def_83)))))))))))))))))) .def_669) .def_671) .def_674) .def_676) .def_679) .def_681)) (and .def_681 (and .def_679 (and .def_676 (and .def_674 (and .def_671 (and .def_669 (and .def_475 (and .def_205 (and .def_155 (and .def_130 (and .def_123 (and .def_120 (and .def_117 (and .def_114 (and .def_111 (and .def_108 (and .def_105 (and .def_102 (and .def_99 (and .def_96 (and .def_93 (and .def_90 (and .def_87 (and .def_76 .def_83))))))))))))))))))))))))) (and .def_681 (and .def_679 (and .def_676 (and .def_674 (and .def_671 (and .def_669 (and .def_475 (and .def_231 (and .def_155 (and .def_130 (and .def_123 (and .def_120 (and .def_117 (and .def_114 (and .def_111 (and .def_108 (and .def_105 (and .def_102 (and .def_99 (and .def_96 (and .def_93 (and .def_90 (and .def_87 .def_208)))))))))))))))))))))))) (and .def_681 (and .def_679 (and .def_676 (and .def_674 (and .def_671 (and .def_669 (and .def_475 (and .def_256 (and .def_155 (and .def_130 (and .def_123 (and .def_120 (and .def_117 (and .def_114 (and .def_111 (and .def_108 (and .def_105 (and .def_102 (and .def_99 (and .def_96 (and .def_93 (and .def_90 (and .def_87 .def_234))))))))))))))))))))))))))))))))))))))))))))))))))))))))))))))))))))))))))))))))))) (state |.y.20| |.y.21| |.y.22| |.y.23| |.y.24| |.y.25| |.y.26| |.y.27| |.y.28| |.y.29| |.y.30| |.y.31| |.y.32| |.y.33| |.y.34| |.y.35| |.y.36| |.loc.37|))))
(assert (forall ((|E_0| Int) (|F_0| Int) (|A_0| Int) (|G_0| Int) (|H_0| Int) (|B_0| Int) (|M| Int) (|L_0| Int) (|P| (Array Int Int)) (|J_0| Int) (|I_0| Int) (|C_0| Int) (|K_0| Int) (|D_0| Int) (|O| Int) (|N| Int) (|Q| (Array Int Int)) (|.loc.19| Bool) (|.loc.37| Bool) (|.y.36| (Array Int Int)) (|.y.34| Int) (|.y.33| Int) (|.y.32| Int) (|.y.31| Int) (|.y.30| Int) (|.y.28| (Array Int Int)) (|.y.26| Int) (|.y.25| Int) (|.y.24| Int) (|.y.22| Int) (|.y.21| Int) (|.y.20| Int) (|.y.35| Int) (|.y.29| Int) (|.y.23| Int) (|.y.27| Int)) (=> (state |E_0| |F_0| |A_0| |G_0| |H_0| |B_0| |M| |L_0| |P| |J_0| |I_0| |C_0| |K_0| |D_0| |O| |N| |Q| |.loc.19|) (not .loc.19))))
(check-sat)
